\* Problem: Unknown *\

Maximize
 obj: + xp_0_0 + xp_1_0 + xp_1_1 + xp_2_0 + xp_2_1 + xp_3_0 + xp_3_1
 + xp_4_0 + xp_5_0 + xp_6_0 + xp_7_0 + xp_8_0 + xp_9_0 + xp_9_1
 + xp_10_0 + xp_11_0 + xp_11_1 + xp_12_0 + xp_12_1 + xp_12_2 + xp_12_3
 + xp_13_0 + xp_13_1 + xp_14_0 + xp_14_1 + xp_15_0 + xp_16_0 + xp_17_0
 + xp_17_1 + xp_18_0 + xp_18_1 + xp_18_2 + xp_18_3 + xp_19_0 + xp_19_1
 + xp_20_0 + xp_21_0 + xp_22_0 + xp_22_1 + xp_23_0 + xp_24_0 + xp_24_1
 + xp_24_2 + xp_25_0 + xp_26_0 + xp_27_0 + xp_28_0 + xp_28_1 + xp_29_0
 + xp_30_0 + xp_31_0 + xp_32_0 + xp_33_0 + xp_34_0 + xp_34_1 + xp_35_0
 + xp_36_0 + xp_37_0 + xp_38_0 + xp_39_0 + xp_40_0 + xp_40_1 + xp_40_2
 + xp_41_0 + xp_42_0 + xp_42_1 + xp_42_2 + xp_43_0 + xp_44_0 + xp_45_0
 + xp_46_0 + xp_46_1 + xp_47_0 + xp_48_0 + xp_48_1 + xp_49_0 + xp_50_0
 + xp_50_1 + xp_51_0 + xp_52_0 + xp_53_0 + xp_53_1 + xp_54_0 + xp_55_0
 + xp_55_1 + xp_56_0 + xp_57_0 + xp_58_0 + xp_58_1 + xp_58_2 + xp_59_0
 + xp_60_0 + xp_60_1 + xp_61_0 + xp_61_1 + xp_62_0 + xp_63_0 + xp_63_1
 + xp_64_0 + xp_65_0 + xp_65_1 + xp_66_0 + xp_67_0 + xp_67_1 + xp_68_0
 + xp_68_1 + xp_68_2 + xp_69_0 + xp_70_0 + xp_71_0 + xp_72_0 + xp_73_0
 + xp_74_0 + xp_74_1 + xp_75_0 + xp_76_0 + xp_77_0 + xp_77_1 + xp_78_0
 + xp_78_1 + xp_78_2 + xp_78_3 + xp_78_4 + xp_79_0 + xp_79_1 + xp_80_0
 + xp_80_1 + xp_81_0 + xp_81_1 + xp_82_0 + xp_83_0 + xp_84_0 + xp_85_0
 + xp_85_1 + xp_86_0 + xp_86_1 + xp_87_0 + xp_88_0 + xp_89_0 + xp_89_1
 + xp_90_0 + xp_90_1 + xp_90_2 + xp_91_0 + xp_91_1 + xp_92_0 + xp_92_1
 + xp_93_0 + xp_94_0 + xp_94_1 + xp_95_0 + xp_95_1 + xp_96_0 + xp_96_1
 + xp_97_0 + xp_98_0 + xp_98_1 + xp_99_0 + xp_100_0 + xp_101_0
 + xp_102_0 + xp_103_0 + xp_104_0 + xp_105_0 + xp_105_1 + xp_106_0
 + xp_107_0 + xp_108_0 + xp_108_1 + xp_108_2 + xp_109_0 + xp_109_1
 + xp_110_0 + xp_111_0 + xp_111_1 + xp_112_0 + xp_112_1 + xp_112_2
 + xp_113_0 + xp_114_0 + xp_115_0 + xp_115_1 + xp_116_0 + xp_116_1
 + xp_117_0 + xp_118_0 + xp_119_0 + xp_120_0 + xp_120_1 + xp_120_2
 + xp_121_0 + xp_122_0 + xp_123_0 + xp_124_0 + xp_125_0 + xp_125_1
 + xp_126_0 + xp_126_1 + xp_126_2 + xp_126_3 + xp_126_4 + xp_126_5
 + xp_126_6 + xp_127_0 + xp_127_1 + xp_128_0 + xp_128_1 + xp_128_2
 + xp_129_0 + xp_129_1 + xp_130_0 + xp_131_0 + xp_131_1 + xp_131_2
 + xp_131_3

Subject To
 r_1: + xp_128_2 + xp_128_1 + xp_122_0 + xp_121_0 + xp_108_2 + xp_107_0
 + xp_78_3 + xp_67_1 + xp_46_1 + xp_40_2 + xp_40_1 + xp_25_0 + xp_22_1
 + xp_18_3 + xp_18_2 + xp_18_0 + xp_16_0 + xp_13_1 + xp_4_0
 <= 38762.5113739763
 r_2: + xp_131_2 + xp_131_1 + xp_127_1 + xp_126_6 + xp_126_5 + xp_126_1
 + xp_120_2 + xp_120_0 + xp_94_1 + xp_93_0 + xp_90_1 + xp_89_1 + xp_85_1
 + xp_85_0 + xp_77_1 + xp_75_0 + xp_74_1 + xp_71_0 + xp_66_0 + xp_65_1
 + xp_65_0 + xp_61_1 + xp_55_0 + xp_52_0 + xp_48_1 + xp_48_0 + xp_42_2
 + xp_42_1 + xp_32_0 + xp_28_1 + xp_28_0 + xp_24_2 + xp_24_0 + xp_19_1
 + xp_19_0 + xp_12_2 + xp_12_1 + xp_1_1 <= 34931.0473350727
 r_3: + xp_126_5 + xp_126_4 + xp_114_0 + xp_105_1 + xp_95_0 + xp_76_0
 + xp_58_1 + xp_48_1 + xp_34_0 <= 39484.32760364
 r_4: + xp_117_0 + xp_112_2 + xp_95_1 + xp_91_1 + xp_91_0 + xp_84_0
 + xp_79_1 + xp_79_0 + xp_78_4 + xp_46_1 + xp_46_0 + xp_43_0 + xp_40_2
 + xp_40_1 + xp_40_0 + xp_34_1 <= 36431.4868804665
 r_5: + xp_130_0 + xp_112_2 + xp_99_0 + xp_86_0 + xp_78_4 + xp_7_0
 + xp_2_0 <= 39484.32760364
 r_6: + xp_126_5 + xp_126_4 + xp_126_2 + xp_119_0 + xp_114_0 + xp_95_0
 + xp_83_0 + xp_81_0 + xp_70_0 + xp_68_1 + xp_58_1 + xp_53_0 + xp_48_1
 + xp_45_0 + xp_34_0 + xp_18_0 <= 39033.1753554502
 r_7: + xp_112_1 + xp_111_1 + xp_104_0 + xp_88_0 + xp_82_0 + xp_81_1
 + xp_78_2 + xp_53_1 + xp_50_1 + xp_44_0 + xp_27_0 + xp_18_3 + xp_18_2
 + xp_18_1 + xp_3_1 <= 36431.4868804665
 r_8: + xp_131_2 + xp_131_1 + xp_127_1 + xp_126_6 + xp_126_5 + xp_126_1
 + xp_120_2 + xp_120_0 + xp_118_0 + xp_103_0 + xp_94_1 + xp_90_1
 + xp_89_1 + xp_77_1 + xp_74_1 + xp_71_0 + xp_61_1 + xp_55_0 + xp_42_2
 + xp_42_1 + xp_32_0 + xp_24_2 + xp_24_0 + xp_12_2 + xp_12_1 + xp_1_1
 <= 38762.5113739763
 r_9: + xp_131_3 + xp_131_0 + xp_127_0 + xp_122_0 + xp_120_1 + xp_108_2
 + xp_78_3 + xp_77_0 + xp_67_1 + xp_55_1 + xp_46_1 + xp_42_0 + xp_33_0
 + xp_24_1 <= 38895.0789229341
 r_10: + xp_112_2 + xp_112_1 + xp_111_1 + xp_106_0 + xp_99_0 + xp_98_0
 + xp_88_0 + xp_86_0 + xp_85_0 + xp_78_4 + xp_78_2 + xp_50_1 + xp_26_0
 + xp_24_0 + xp_8_0 + xp_7_0 + xp_3_1 + xp_2_0 <= 39033.1753554502
 r_11: + xp_119_0 + xp_112_0 + xp_111_0 + xp_95_0 + xp_81_0 + xp_78_3
 + xp_78_1 + xp_78_0 + xp_59_0 + xp_53_0 + xp_50_0 + xp_49_0 + xp_45_0
 + xp_34_0 + xp_18_0 + xp_4_0 + xp_3_0 <= 36134.2717920953
 r_12: + xp_129_0 + xp_128_2 + xp_128_0 + xp_123_0 + xp_117_0 + xp_112_2
 + xp_112_1 + xp_111_1 + xp_108_1 + xp_101_0 + xp_91_1 + xp_82_0
 + xp_81_1 + xp_80_1 + xp_79_1 + xp_78_4 + xp_78_2 + xp_78_0 + xp_73_0
 + xp_63_1 + xp_60_0 + xp_50_1 + xp_46_0 + xp_44_0 + xp_40_1 + xp_40_0
 + xp_18_2 + xp_18_1 + xp_17_1 + xp_15_0 + xp_14_1 + xp_13_0 + xp_9_0
 <= 35686.9315461944
 r_13: + xp_129_1 + xp_128_1 + xp_126_6 + xp_126_3 + xp_120_2 + xp_120_1
 + xp_109_1 + xp_100_0 + xp_96_1 + xp_95_1 + xp_92_1 + xp_91_0 + xp_90_0
 + xp_80_0 + xp_79_0 + xp_68_0 + xp_63_0 + xp_60_1 + xp_58_2 + xp_53_1
 + xp_46_1 + xp_40_2 + xp_34_1 + xp_31_0 + xp_30_0 + xp_18_3 + xp_17_0
 + xp_13_1 + xp_9_1 <= 36134.2717920953
 r_14: + xp_131_3 + xp_131_2 + xp_131_1 + xp_131_0 + xp_126_5 + xp_126_4
 + xp_126_2 + xp_125_1 + xp_125_0 + xp_124_0 + xp_115_1 + xp_115_0
 + xp_98_1 + xp_94_1 + xp_94_0 + xp_86_1 + xp_85_1 + xp_77_1 + xp_77_0
 + xp_68_1 + xp_65_1 + xp_65_0 + xp_58_1 + xp_56_0 + xp_51_0 + xp_48_1
 + xp_41_0 + xp_38_0 + xp_35_0 + xp_24_2 + xp_24_1 + xp_20_0 + xp_19_1
 + xp_19_0 + xp_12_3 + xp_12_2 + xp_12_1 + xp_12_0 + xp_2_1 + xp_0_0
 <= 36431.4868804665
 r_15: + xp_131_2 + xp_131_0 + xp_126_6 + xp_126_5 + xp_126_4 + xp_126_3
 + xp_126_2 + xp_125_0 + xp_124_0 + xp_120_2 + xp_120_1 + xp_116_0
 + xp_115_0 + xp_109_1 + xp_98_1 + xp_96_1 + xp_94_1 + xp_94_0 + xp_92_1
 + xp_90_0 + xp_89_1 + xp_89_0 + xp_86_1 + xp_85_1 + xp_77_1 + xp_77_0
 + xp_68_1 + xp_68_0 + xp_65_0 + xp_58_2 + xp_58_1 + xp_51_0 + xp_48_1
 + xp_42_1 + xp_42_0 + xp_38_0 + xp_36_0 + xp_28_1 + xp_24_1 + xp_19_1
 + xp_12_2 + xp_12_0 + xp_11_0 + xp_0_0 <= 35686.9315461944
 r_16: + xp_128_0 + xp_123_0 + xp_108_1 + xp_108_0 + xp_78_4 + xp_78_2
 + xp_78_1 + xp_78_0 + xp_73_0 + xp_67_0 + xp_57_0 + xp_46_0 + xp_44_0
 + xp_40_0 + xp_22_0 + xp_18_1 + xp_13_0 + xp_6_0 <= 38895.0789229341
 r_17: + xp_131_3 + xp_129_0 + xp_128_2 + xp_126_0 + xp_112_2 + xp_112_1
 + xp_111_1 + xp_109_0 + xp_97_0 + xp_91_1 + xp_90_2 + xp_81_1 + xp_80_1
 + xp_79_1 + xp_68_2 + xp_63_1 + xp_62_0 + xp_61_0 + xp_60_0 + xp_55_1
 + xp_47_0 + xp_40_1 + xp_22_1 + xp_18_2 + xp_17_1 + xp_12_3 + xp_9_0
 + xp_1_0 <= 34931.0473350727
 r_18: + xp_126_6 + xp_126_3 + xp_126_1 + xp_126_0 + xp_106_0 + xp_99_0
 + xp_98_0 + xp_92_1 + xp_92_0 + xp_86_0 + xp_85_0 + xp_68_2 + xp_68_0
 + xp_58_2 + xp_58_0 + xp_48_0 + xp_32_0 + xp_30_0 + xp_26_0 + xp_24_0
 + xp_5_0 + xp_2_0 <= 36134.2717920953
 r_19: + xp_131_3 + xp_131_1 + xp_125_1 + xp_116_1 + xp_115_1 + xp_110_0
 + xp_108_1 + xp_78_0 + xp_65_1 + xp_56_0 + xp_42_2 + xp_28_0 + xp_24_2
 + xp_19_0 + xp_14_1 + xp_12_3 + xp_12_1 + xp_11_1 + xp_3_0 + xp_2_1
 <= 36134.2717920953
 r_20: + xp_129_1 + xp_128_1 + xp_119_0 + xp_112_0 + xp_111_0 + xp_108_2
 + xp_108_0 + xp_107_0 + xp_95_1 + xp_95_0 + xp_91_0 + xp_81_0 + xp_80_0
 + xp_79_0 + xp_78_3 + xp_78_1 + xp_69_0 + xp_64_0 + xp_63_0 + xp_60_1
 + xp_50_0 + xp_49_0 + xp_46_1 + xp_45_0 + xp_40_2 + xp_18_3 + xp_18_0
 + xp_17_0 + xp_14_0 + xp_13_1 + xp_10_0 + xp_9_1 + xp_4_0
 <= 34931.0473350727
 r_21: + xp_126_5 + xp_126_4 + xp_113_0 + xp_105_1 + xp_86_1 + xp_77_1
 + xp_77_0 + xp_65_1 + xp_65_0 + xp_58_1 + xp_48_1 + xp_38_0 + xp_20_0
 + xp_2_1 + xp_0_0 <= 36431.4868804665
 r_22: + xp_126_2 + xp_124_0 + xp_105_0 + xp_98_1 + xp_94_1 + xp_94_0
 + xp_85_1 + xp_83_0 + xp_68_1 + xp_41_0 + xp_24_2 + xp_24_1
 <= 36431.4868804665
 r_23: + xp_128_2 + xp_128_1 + xp_128_0 + xp_117_0 + xp_112_2 + xp_112_1
 + xp_111_1 + xp_104_0 + xp_100_0 + xp_95_1 + xp_91_1 + xp_91_0
 + xp_84_0 + xp_82_0 + xp_81_1 + xp_80_1 + xp_80_0 + xp_79_1 + xp_79_0
 + xp_78_4 + xp_78_2 + xp_73_0 + xp_60_1 + xp_60_0 + xp_53_1 + xp_50_1
 + xp_46_1 + xp_46_0 + xp_44_0 + xp_40_2 + xp_40_1 + xp_40_0 + xp_34_1
 + xp_21_0 + xp_18_3 + xp_18_2 + xp_18_1 + xp_15_0 + xp_9_1 + xp_9_0
 + xp_3_1 <= 36431.4868804665
 r_24: + xp_128_0 + xp_126_6 + xp_126_5 + xp_126_1 + xp_103_0 + xp_94_1
 + xp_90_1 + xp_89_1 + xp_74_1 + xp_61_1 + xp_40_0 + xp_39_0 + xp_22_0
 + xp_18_1 + xp_13_0 + xp_12_2 + xp_12_1 + xp_1_1 <= 38895.0789229341
 r_25: + xp_131_3 + xp_131_0 + xp_127_0 + xp_126_4 + xp_126_3 + xp_126_2
 + xp_126_0 + xp_120_1 + xp_94_0 + xp_90_2 + xp_90_0 + xp_89_0 + xp_77_0
 + xp_74_0 + xp_61_0 + xp_55_1 + xp_42_0 + xp_38_0 + xp_24_1 + xp_12_3
 + xp_12_0 + xp_1_0 <= 38895.0789229341
 r_26: + xp_128_2 + xp_128_1 + xp_121_0 + xp_112_2 + xp_112_1 + xp_112_0
 + xp_108_2 + xp_107_0 + xp_81_1 + xp_81_0 + xp_79_1 + xp_79_0 + xp_78_3
 + xp_67_1 + xp_64_0 + xp_60_1 + xp_60_0 + xp_47_0 + xp_46_1 + xp_40_2
 + xp_40_1 + xp_37_0 + xp_29_0 + xp_25_0 + xp_22_1 + xp_18_3 + xp_18_2
 + xp_18_0 + xp_17_1 + xp_17_0 + xp_13_1 + xp_4_0 <= 34931.0473350727
 r_27: + xp_131_2 + xp_127_1 + xp_126_6 + xp_126_5 + xp_125_0 + xp_120_2
 + xp_116_0 + xp_115_0 + xp_108_0 + xp_98_1 + xp_96_1 + xp_94_1
 + xp_92_1 + xp_89_1 + xp_86_1 + xp_85_1 + xp_78_1 + xp_77_1 + xp_74_1
 + xp_72_0 + xp_67_0 + xp_65_0 + xp_58_2 + xp_58_1 + xp_57_0 + xp_52_0
 + xp_50_0 + xp_48_1 + xp_42_1 + xp_28_1 + xp_23_0 + xp_19_1 + xp_14_0
 + xp_12_2 + xp_11_0 <= 34931.0473350727
 r_28: + xp_131_3 + xp_131_1 + xp_126_1 + xp_126_0 + xp_125_1 + xp_120_0
 + xp_116_1 + xp_115_1 + xp_109_0 + xp_99_0 + xp_98_0 + xp_96_0
 + xp_92_0 + xp_90_2 + xp_90_1 + xp_86_0 + xp_85_0 + xp_75_0 + xp_68_2
 + xp_65_1 + xp_58_0 + xp_54_0 + xp_48_0 + xp_42_2 + xp_32_0 + xp_28_0
 + xp_26_0 + xp_24_2 + xp_24_0 + xp_19_0 + xp_12_3 + xp_12_1 + xp_11_1
 <= 34931.0473350727
 r_29: + xp_129_1 + xp_129_0 + xp_95_1 + xp_95_0 + xp_93_0 + xp_87_0
 + xp_71_0 + xp_62_0 + xp_49_0 + xp_45_0 + xp_10_0 + xp_9_1 + xp_9_0
 + xp_1_1 + xp_1_0 <= 34931.0473350727
 r_30: + xp_125_1 + xp_125_0 + xp_121_0 + xp_102_0 + xp_99_0 + xp_96_1
 + xp_96_0 + xp_92_1 + xp_92_0 + xp_57_0 + xp_37_0 + xp_26_0 + xp_23_0
 + xp_11_1 + xp_11_0 <= 34931.0473350727

Bounds
 0 <= xp_0_0 <= 235.433317047734
 0 <= xp_1_0 <= 136.623663733706
 0 <= xp_1_1 <= 45.5412212445687
 0 <= xp_2_0 <= 105.194192754452
 0 <= xp_2_1 <= 9.5631084322229
 0 <= xp_3_0 <= 151.584859160622
 0 <= xp_3_1 <= 30.3169718321244
 0 <= xp_4_0 <= 787.12328819674
 0 <= xp_5_0 <= 1080.95459003173
 0 <= xp_6_0 <= 1787.91217613876
 0 <= xp_7_0 <= 636.853698963759
 0 <= xp_8_0 <= 1506.37864812721
 0 <= xp_9_0 <= 53.9918305296619
 0 <= xp_9_1 <= 53.9918305296619
 0 <= xp_10_0 <= 54.7152289898645
 0 <= xp_11_0 <= 20.7155013603453
 0 <= xp_11_1 <= 20.7155013603453
 0 <= xp_12_0 <= 1375.02702468679
 0 <= xp_12_1 <= 343.756756171698
 0 <= xp_12_2 <= 171.878378085849
 0 <= xp_12_3 <= 171.878378085849
 0 <= xp_13_0 <= 188.560385001429
 0 <= xp_13_1 <= 62.853461667143
 0 <= xp_14_0 <= 128.014125999023
 0 <= xp_14_1 <= 91.4386614278734
 0 <= xp_15_0 <= 505.984341163482
 0 <= xp_16_0 <= 2635.07753653231
 0 <= xp_17_0 <= 148.198039096947
 0 <= xp_17_1 <= 148.198039096947
 0 <= xp_18_0 <= 149.255735330425
 0 <= xp_18_1 <= 149.255735330425
 0 <= xp_18_2 <= 29.8511470660849
 0 <= xp_18_3 <= 29.8511470660849
 0 <= xp_19_0 <= 704.195519258977
 0 <= xp_19_1 <= 352.097759629488
 0 <= xp_20_0 <= 127.975763959467
 0 <= xp_21_0 <= 273.904962431232
 0 <= xp_22_0 <= 512.270235359333
 0 <= xp_22_1 <= 717.178329503066
 0 <= xp_23_0 <= 51.8873986454364
 0 <= xp_24_0 <= 226.62100853254
 0 <= xp_24_1 <= 84.9828781997023
 0 <= xp_24_2 <= 28.3276260665674
 0 <= xp_25_0 <= 577.600788723533
 0 <= xp_26_0 <= 15.3228946570173
 0 <= xp_27_0 <= 337.235209447145
 0 <= xp_28_0 <= 444.122812233435
 0 <= xp_28_1 <= 222.061406116718
 0 <= xp_29_0 <= 2443.11389059311
 0 <= xp_30_0 <= 183.019810431241
 0 <= xp_31_0 <= 190.253795033267
 0 <= xp_32_0 <= 2246.94138088545
 0 <= xp_33_0 <= 8044.65122192686
 0 <= xp_34_0 <= 169.976716982135
 0 <= xp_34_1 <= 339.95343396427
 0 <= xp_35_0 <= 260.554972665677
 0 <= xp_36_0 <= 318.361085985497
 0 <= xp_37_0 <= 364.198242963785
 0 <= xp_38_0 <= 334.210088613571
 0 <= xp_39_0 <= 1570.56382059609
 0 <= xp_40_0 <= 353.177377028427
 0 <= xp_40_1 <= 211.906426217056
 0 <= xp_40_2 <= 282.541901622742
 0 <= xp_41_0 <= 79.771121111425
 0 <= xp_42_0 <= 302.249029371896
 0 <= xp_42_1 <= 113.343386014461
 0 <= xp_42_2 <= 37.7811286714869
 0 <= xp_43_0 <= 491.187554477521
 0 <= xp_44_0 <= 457.779698315441
 0 <= xp_45_0 <= 42.4832186628034
 0 <= xp_46_0 <= 1469.16198946633
 0 <= xp_46_1 <= 133.560180860576
 0 <= xp_47_0 <= 877.416568729293
 0 <= xp_48_0 <= 2659.63472213964
 0 <= xp_48_1 <= 241.784974739967
 0 <= xp_49_0 <= 87.925794662799
 0 <= xp_50_0 <= 456.738442956058
 0 <= xp_50_1 <= 326.241744968613
 0 <= xp_51_0 <= 708.338619531046
 0 <= xp_52_0 <= 661.251956121499
 0 <= xp_53_0 <= 173.796480063659
 0 <= xp_53_1 <= 15.7996800057872
 0 <= xp_54_0 <= 3687.16195165232
 0 <= xp_55_0 <= 1084.55514145865
 0 <= xp_55_1 <= 98.5959219507864
 0 <= xp_56_0 <= 95.6201237394987
 0 <= xp_57_0 <= 205.708216683048
 0 <= xp_58_0 <= 3025.82231086898
 0 <= xp_58_1 <= 756.455577717245
 0 <= xp_58_2 <= 756.455577717245
 0 <= xp_59_0 <= 10626.1315089078
 0 <= xp_60_0 <= 394.745387033247
 0 <= xp_60_1 <= 281.960990738034
 0 <= xp_61_0 <= 1811.96517494049
 0 <= xp_61_1 <= 603.98839164683
 0 <= xp_62_0 <= 131.000884793041
 0 <= xp_63_0 <= 98.6945671953595
 0 <= xp_63_1 <= 32.8981890651198
 0 <= xp_64_0 <= 992.699977887024
 0 <= xp_65_0 <= 478.045815783842
 0 <= xp_65_1 <= 43.4587105258038
 0 <= xp_66_0 <= 1677.16644823139
 0 <= xp_67_0 <= 336.599495648786
 0 <= xp_67_1 <= 67.3198991297571
 0 <= xp_68_0 <= 612.860983367042
 0 <= xp_68_1 <= 612.860983367042
 0 <= xp_68_2 <= 245.144393346817
 0 <= xp_69_0 <= 1715.70385711127
 0 <= xp_70_0 <= 630.606166807464
 0 <= xp_71_0 <= 70.7615221070843
 0 <= xp_72_0 <= 598.05323609835
 0 <= xp_73_0 <= 921.478111305265
 0 <= xp_74_0 <= 872.35825979924
 0 <= xp_74_1 <= 79.3052963453855
 0 <= xp_75_0 <= 1761.08066961488
 0 <= xp_76_0 <= 1719.2550859159
 0 <= xp_77_0 <= 380.814486382983
 0 <= xp_77_1 <= 190.407243191491
 0 <= xp_78_0 <= 2328.95394116524
 0 <= xp_78_1 <= 4657.90788233047
 0 <= xp_78_2 <= 11644.7697058262
 0 <= xp_78_3 <= 6986.86182349571
 0 <= xp_78_4 <= 2328.95394116524
 0 <= xp_79_0 <= 620.621075940123
 0 <= xp_79_1 <= 443.300768528659
 0 <= xp_80_0 <= 131.351623440412
 0 <= xp_80_1 <= 93.8225881717227
 0 <= xp_81_0 <= 195.416229499257
 0 <= xp_81_1 <= 65.1387431664192
 0 <= xp_82_0 <= 219.518550923278
 0 <= xp_83_0 <= 503.222274315436
 0 <= xp_84_0 <= 888.925180596151
 0 <= xp_85_0 <= 170.080842518073
 0 <= xp_85_1 <= 238.113179525303
 0 <= xp_86_0 <= 71.3533935745228
 0 <= xp_86_1 <= 99.8947510043319
 0 <= xp_87_0 <= 141.128463235876
 0 <= xp_88_0 <= 424.766423131652
 0 <= xp_89_0 <= 2033.59363803936
 0 <= xp_89_1 <= 184.872148912669
 0 <= xp_90_0 <= 7226.81638091971
 0 <= xp_90_1 <= 9033.52047614963
 0 <= xp_90_2 <= 5420.11228568978
 0 <= xp_91_0 <= 1359.29858846875
 0 <= xp_91_1 <= 1359.29858846875
 0 <= xp_92_0 <= 61.2477362971479
 0 <= xp_92_1 <= 5.56797602701345
 0 <= xp_93_0 <= 130.34324982922
 0 <= xp_94_0 <= 197.400094973449
 0 <= xp_94_1 <= 39.4800189946899
 0 <= xp_95_0 <= 51.0763155233911
 0 <= xp_95_1 <= 10.2152631046782
 0 <= xp_96_0 <= 96.1243105450944
 0 <= xp_96_1 <= 19.2248621090189
 0 <= xp_97_0 <= 527.160186998502
 0 <= xp_98_0 <= 83.399073995168
 0 <= xp_98_1 <= 59.5707671394057
 0 <= xp_99_0 <= 16.3751105991301
 0 <= xp_100_0 <= 503.02498382629
 0 <= xp_101_0 <= 249.901286251785
 0 <= xp_102_0 <= 74.9703858755354
 0 <= xp_103_0 <= 1439.95751678134
 0 <= xp_104_0 <= 131.92157374239
 0 <= xp_105_0 <= 1329.24467062216
 0 <= xp_105_1 <= 120.840424602014
 0 <= xp_106_0 <= 41.4310027206906
 0 <= xp_107_0 <= 449.822315253213
 0 <= xp_108_0 <= 353.835011992247
 0 <= xp_108_1 <= 212.301007195348
 0 <= xp_108_2 <= 283.068009593798
 0 <= xp_109_0 <= 322.28497460296
 0 <= xp_109_1 <= 644.569949205919
 0 <= xp_110_0 <= 133.236843670031
 0 <= xp_111_0 <= 2194.06752979429
 0 <= xp_111_1 <= 731.355843264763
 0 <= xp_112_0 <= 3901.8030432606
 0 <= xp_112_1 <= 390.18030432606
 0 <= xp_112_2 <= 390.18030432606
 0 <= xp_113_0 <= 425.489821591855
 0 <= xp_114_0 <= 2398.26318606055
 0 <= xp_115_0 <= 184.137789869736
 0 <= xp_115_1 <= 36.8275579739472
 0 <= xp_116_0 <= 133.116277259997
 0 <= xp_116_1 <= 26.6232554519994
 0 <= xp_117_0 <= 1943.64013557145
 0 <= xp_118_0 <= 3155.33255641069
 0 <= xp_119_0 <= 62.8041390448564
 0 <= xp_120_0 <= 1085.03192680742
 0 <= xp_120_1 <= 361.677308935807
 0 <= xp_120_2 <= 723.354617871613
 0 <= xp_121_0 <= 75.5622573429739
 0 <= xp_122_0 <= 2275.21968432974
 0 <= xp_123_0 <= 513.94172422571
 0 <= xp_124_0 <= 137.70876142401
 0 <= xp_125_0 <= 20.4688882489126
 0 <= xp_125_1 <= 6.82296274963754
 0 <= xp_126_0 <= 2115.34314433361
 0 <= xp_126_1 <= 4230.68628866722
 0 <= xp_126_2 <= 8461.37257733444
 0 <= xp_126_3 <= 4230.68628866722
 0 <= xp_126_4 <= 2115.34314433361
 0 <= xp_126_5 <= 2115.34314433361
 0 <= xp_126_6 <= 2115.34314433361
 0 <= xp_127_0 <= 288.471576879856
 0 <= xp_127_1 <= 288.471576879856
 0 <= xp_128_0 <= 203.110558575957
 0 <= xp_128_1 <= 169.258798813298
 0 <= xp_128_2 <= 33.8517597626595
 0 <= xp_129_0 <= 16.3312682682087
 0 <= xp_129_1 <= 32.6625365364175
 0 <= xp_130_0 <= 403.722104289396
 0 <= xp_131_0 <= 127.986724542197
 0 <= xp_131_1 <= 319.966811355492
 0 <= xp_131_2 <= 255.973449084394
 0 <= xp_131_3 <= 63.9933622710985

End
